&GLOBAL
   RUN_TYPE ENERGY
   PRINT_LEVEL MEDIUM
&END GLOBAL

&FORCE_EVAL
   METHOD Quickstep
   &PROPERTIES
     &FIT_CHARGE
       TYPE_OF_DENSITY FULL
     &END
   &END
   &DFT
      BASIS_SET_FILE_NAME  BASIS_MOLOPT
      POTENTIAL_FILE_NAME  GTH_POTENTIALS

      &POISSON
         PERIODIC XYZ
      &END POISSON

      &DENSITY_FITTING
      &END

      &SCF
         SCF_GUESS ATOMIC
         EPS_SCF 1.0E-6
         MAX_SCF 300
         ADDED_MOS 100
         &DIAGONALIZATION
            ALGORITHM STANDARD
            EPS_ADAPT 0.01
         &END DIAGONALIZATION
         &SMEAR  ON
            METHOD FERMI_DIRAC
            ELECTRONIC_TEMPERATURE [K] 300
         &END SMEAR

         &MIXING
            METHOD BROYDEN_MIXING
            ALPHA 0.2
            BETA 1.5
            NBROYDEN 8
         &END MIXING

      &END SCF
      &XC
         &XC_FUNCTIONAL PBE
         &END XC_FUNCTIONAL
      &END XC
      &PRINT
         &E_DENSITY_CUBE
           STRIDE 1 1 1
         &END
         &TOT_DENSITY_CUBE
           STRIDE 1 1 1
         &END
      &END PRINT
   &END DFT

  &SUBSYS
        &CELL
          ABC 12 12 12
        &END CELL
        &COORD
          O       6.99999927       7.30615195       7.00000000        8
          H       7.75888482       6.69384876       7.00000000        1
          H       6.24111518       6.69384805       7.00000000        1
        &END COORD
        &KIND H
          BASIS_SET DZVP-MOLOPT-SR-GTH
          POTENTIAL GTH-PBE
        &END KIND
        &KIND O
          BASIS_SET DZVP-MOLOPT-SR-GTH
          POTENTIAL GTH-PBE
        &END KIND
   &END SUBSYS
&END FORCE_EVAL
